\ Generated by MPModelProtoExporter
\   Name             : 
\   Format           : Free
\   Constraints      : 25
\   Variables        : 11
\     Binary         : 11
\     Integer        : 0
\     Continuous     : 0
Minimize
 Obj: +355.2 s1_n1 +32.26 s2_n3 +0.116 f1_n1 +0.142 f1_n2 
Subject to
 one_node_s1: +1 s1_n1  = 1
 one_node_s2: +1 s2_n3  = 1
 one_node_f1: +1 f1_n1 +1 f1_n2  = 1
 hw_n1: -99 b_n1 +50 s1_n1 +5 f1_n1  <= 0
 hw_n2: -99 b_n2 +5 f1_n2  <= 0
 hw_n3: -19 b_n3 +10 s2_n3  <= 0
 budget: +1 b_n1 +1 b_n2 +1 b_n3  <= 3
 lin_1_s1_n1_s2_n3: -1 s1_n1 +1 s1_n1_s2_n3  <= 0
 lin_2_s1_n1_s2_n3: -1 s2_n3 +1 s1_n1_s2_n3  <= 0
 lin_3_s1_n1_s2_n3: -1 s1_n1 -1 s2_n3 +1 s1_n1_s2_n3  >= -1
 s1_n1_s2_n3_lat: +20 s1_n1_s2_n3  <= 30
 n1_n3_bw_rhs: +4 s1_n1_s2_n3  <= 47
 n1_n3_bw_lhs: +4 s1_n1_s2_n3  >= 0
 lin_1_f1_n2_s1_n1: -1 f1_n2 +1 f1_n2_s1_n1  <= 0
 lin_2_f1_n2_s1_n1: -1 s1_n1 +1 f1_n2_s1_n1  <= 0
 lin_3_f1_n2_s1_n1: -1 s1_n1 -1 f1_n2 +1 f1_n2_s1_n1  >= -1
 f1_n2_s1_n1_lat: +20 f1_n2_s1_n1  <= 20
 n2_n1_bw_rhs: +4 f1_n2_s1_n1  <= 47
 n2_n1_bw_lhs: +4 f1_n2_s1_n1  >= 0
 lin_1_t1_n3_s1_n1: +1 t1_n3_s1_n1  <= 1
 lin_2_t1_n3_s1_n1: -1 s1_n1 +1 t1_n3_s1_n1  <= 0
 lin_3_t1_n3_s1_n1: -1 s1_n1 +1 t1_n3_s1_n1  >= 0
 t1_n3_s1_n1_lat: +20 t1_n3_s1_n1  <= 20
 n3_n1_bw_rhs: +4 t1_n3_s1_n1  <= 47
 n3_n1_bw_lhs: +4 t1_n3_s1_n1  >= 0
 one_link_t1_s1: +1 t1_n3_s1_n1  = 1
 one_link_s1_s2: +1 s1_n1_s2_n3  = 1
 one_link_f1_s1: +1 f1_n2_s1_n1 +1 f1_n1_s1_n1  = 1
Bounds
 0 <= b_n1 <= 1
 0 <= b_n2 <= 1
 0 <= b_n3 <= 1
 0 <= s1_n1 <= 1
 0 <= s2_n3 <= 1
 0 <= f1_n1 <= 1
 0 <= f1_n2 <= 1
 0 <= s1_n1_s2_n3 <= 1
 0 <= f1_n2_s1_n1 <= 1
 0 <= t1_n3_s1_n1 <= 1
 0 <= f1_n1_s1_n1 <= 1
Binaries
 b_n1
 b_n2
 b_n3
 s1_n1
 s2_n3
 f1_n1
 f1_n2
 s1_n1_s2_n3
 f1_n2_s1_n1
 t1_n3_s1_n1
 f1_n1_s1_n1
End

